10
-1 2 15 45 78 61 24 47 72 86
93 -1 21 73 18 15 85 89 70 58
33 78 -1 27 73 67 12 63 4 3
75 97 22 -1 89 71 15 48 92 68
58 61 99 75 -1 36 64 66 85 45
8 85 56 49 24 -1 95 78 22 17
94 8 85 9 97 92 -1 52 8 89
1 15 24 14 41 87 52 -1 51 7
18 87 27 52 12 68 7 85 -1 81
19 9 20 16 99 3 72 53 7 -1
